; benchmark generated from python API
(set-info :status unknown)
(declare-fun R_E1_V4 () Bool)
(declare-fun W_S1_V4 () Bool)
(declare-fun R_E1_V5 () Bool)
(declare-fun W_S1_V5 () Bool)
(declare-fun W_S2_V5 () Bool)
(declare-fun W_S2_V2 () Bool)
(declare-fun W_S2_V3 () Bool)
(declare-fun W_S2_V1 () Bool)
(declare-fun W_S1_V1 () Bool)
(declare-fun R_S2_V4 () Bool)
(declare-fun R_S2_V5 () Bool)
(declare-fun R_S2_V2 () Bool)
(declare-fun R_S2_V3 () Bool)
(declare-fun R_S2_V1 () Bool)
(declare-fun R_S1_V1 () Bool)
(declare-fun R_E1_V2 () Bool)
(declare-fun DISJ_W_S2_R_E1 () Bool)
(declare-fun DISJ_W_S2_R_S2 () Bool)
(declare-fun R_S1_V4 () Bool)
(declare-fun R_S1_V5 () Bool)
(declare-fun R_S1_V2 () Bool)
(declare-fun R_S1_V3 () Bool)
(declare-fun DISJ_W_S2_R_S1 () Bool)
(declare-fun DISJ_W_S1_W_S2 () Bool)
(declare-fun R_E1_V3 () Bool)
(declare-fun DISJ_W_S1_R_S2 () Bool)
(declare-fun DISJ_W_S1_R_S1 () Bool)
(declare-fun W_S2_V4 () Bool)
(declare-fun W_S1_V3 () Bool)
(declare-fun W_S1_V2 () Bool)
(declare-fun R_E1_V1 () Bool)
(declare-fun DISJ_W_S1_R_E1 () Bool)
(assert
 (let (($x1618 (not (and W_S1_V4 R_E1_V4))))
 (let (($x1110 (not (and W_S1_V5 R_E1_V5))))
 (let (($x1785 (forall ((V3_0 Int) )(forall ((V2_0 Int) )(forall ((V5_0 Int) )(forall ((V4_0 Int) )(forall ((MW_S1_V1 Bool) )(forall ((MW_S1_V3 Bool) )(forall ((MW_S1_V2 Bool) )(forall ((MW_S1_V5 Bool) )(forall ((MW_S1_V4 Bool) )(forall ((MW_S2_V1 Bool) )(forall ((MW_S2_V3 Bool) )(forall ((MW_S2_V2 Bool) )(forall ((MW_S2_V5 Bool) )(forall ((MW_S2_V4 Bool) )(forall ((S1_V1_!1338 Int) )(forall ((S1_V1_!1350 Int) )(forall ((S2_V5_!1347 Int) )(forall ((S2_V5_!1358 Int) )(forall ((S1_V3_!1339 Int) )(forall ((S1_V3_!1351 Int) )(forall ((S1_V2_!1340 Int) )(forall ((S1_V2_!1352 Int) )(forall ((E1_!1337 Int) )(forall ((E1_!1343 Int) )(forall ((E1_!1349 Int) )(forall ((S2_V4_!1348 Int) )(forall ((S2_V4_!1359 Int) )(forall ((S1_V5_!1341 Int) )(forall ((S1_V5_!1353 Int) )(forall ((S2_V1_!1344 Int) )(forall ((S2_V1_!1355 Int) )(forall ((S1_V4_!1342 Int) )(forall ((S1_V4_!1354 Int) )(forall ((S2_V2_!1346 Int) )(forall ((S2_V2_!1357 Int) )(forall ((S2_V3_!1345 Int) )(forall ((S2_V3_!1356 Int) )(let (($x328 (= (ite MW_S2_V4 S2_V4_!1348 (ite MW_S1_V4 S1_V4_!1342 V4_0)) (ite MW_S2_V4 S2_V4_!1359 (ite MW_S1_V4 S1_V4_!1354 V4_0)))))
 (let (($x2763 (= (ite MW_S2_V5 S2_V5_!1347 (ite MW_S1_V5 S1_V5_!1341 V5_0)) (ite MW_S2_V5 S2_V5_!1358 (ite MW_S1_V5 S1_V5_!1353 V5_0)))))
 (let ((?x1961 (ite MW_S1_V2 S1_V2_!1352 V2_0)))
 (let ((?x622 (ite MW_S2_V2 S2_V2_!1357 ?x1961)))
 (let ((?x5195 (ite MW_S1_V2 S1_V2_!1340 V2_0)))
 (let ((?x1696 (ite MW_S2_V2 S2_V2_!1346 ?x5195)))
 (let (($x2362 (= (ite MW_S2_V3 S2_V3_!1345 (ite MW_S1_V3 S1_V3_!1339 V3_0)) (ite MW_S2_V3 S2_V3_!1356 (ite MW_S1_V3 S1_V3_!1351 V3_0)))))
 (let (($x5237 (and (= (ite MW_S2_V1 S2_V1_!1344 E1_!1343) (ite MW_S2_V1 S2_V1_!1355 (ite MW_S1_V1 S1_V1_!1350 E1_!1349))) $x2362 (= ?x1696 ?x622) $x2763 $x328)))
 (let (($x1716 (and (not (<= V2_0 E1_!1337)) (>= (ite MW_S1_V1 S1_V1_!1338 E1_!1337) (+ (- 1) ?x5195)) (not (<= ?x5195 E1_!1343)) (>= (ite MW_S2_V1 S2_V1_!1344 E1_!1343) (+ (- 1) ?x1696)) (not (<= V2_0 E1_!1349)) (>= (ite MW_S2_V1 S2_V1_!1355 (ite MW_S1_V1 S1_V1_!1350 E1_!1349)) (+ (- 1) ?x622)))))
 (let (($x2816 (= S2_V3_!1356 S2_V3_!1345)))
 (let (($x1441 (and (or (not R_S2_V1) (= (ite MW_S1_V1 S1_V1_!1350 E1_!1349) E1_!1343)) (or (not R_S2_V3) (= (ite MW_S1_V3 S1_V3_!1351 V3_0) (ite MW_S1_V3 S1_V3_!1339 V3_0))) (or (not R_S2_V2) (= ?x1961 ?x5195)) (or (not R_S2_V5) (= (ite MW_S1_V5 S1_V5_!1353 V5_0) (ite MW_S1_V5 S1_V5_!1341 V5_0))) (or (not R_S2_V4) (= (ite MW_S1_V4 S1_V4_!1354 V4_0) (ite MW_S1_V4 S1_V4_!1342 V4_0))))))
 (let (($x5938 (not $x1441)))
 (let (($x4422 (and (or (not R_S2_V1) (= E1_!1343 (ite MW_S1_V1 S1_V1_!1350 E1_!1349))) (or (not R_S2_V3) (= (ite MW_S1_V3 S1_V3_!1339 V3_0) (ite MW_S1_V3 S1_V3_!1351 V3_0))) (or (not R_S2_V2) (= ?x5195 ?x1961)) (or (not R_S2_V5) (= (ite MW_S1_V5 S1_V5_!1341 V5_0) (ite MW_S1_V5 S1_V5_!1353 V5_0))) (or (not R_S2_V4) (= (ite MW_S1_V4 S1_V4_!1342 V4_0) (ite MW_S1_V4 S1_V4_!1354 V4_0))))))
 (let (($x1734 (not $x4422)))
 (let (($x4803 (and (or (not R_E1_V2) (= ?x5195 V2_0)) (or (not R_E1_V5) (= (ite MW_S1_V5 S1_V5_!1341 V5_0) V5_0)) (or (not R_E1_V4) (= (ite MW_S1_V4 S1_V4_!1342 V4_0) V4_0)))))
 (let (($x5925 (not $x4803)))
 (let (($x3384 (= E1_!1337 E1_!1349)))
 (let (($x1490 (and (or (not (or (not R_S1_V1) (= E1_!1349 E1_!1337))) (= S1_V1_!1350 S1_V1_!1338)) (or $x5938 (= S2_V5_!1358 S2_V5_!1347)) (or (not (or (not R_S1_V1) $x3384)) (= S1_V3_!1339 S1_V3_!1351)) (or (not (or (not R_S1_V1) (= E1_!1349 E1_!1337))) (= S1_V2_!1352 S1_V2_!1340)) $x3384 (or $x5925 (= E1_!1343 E1_!1337)) (or $x5925 (= E1_!1343 E1_!1349)) (or $x1734 (= S2_V4_!1348 S2_V4_!1359)) (or (not (or (not R_S1_V1) (= E1_!1349 E1_!1337))) (= S1_V5_!1353 S1_V5_!1341)) (or $x1734 (= S2_V1_!1344 S2_V1_!1355)) (or (not (or (not R_S1_V1) $x3384)) (= S1_V4_!1342 S1_V4_!1354)) (or $x5938 (= S2_V2_!1357 S2_V2_!1346)) (or $x5938 $x2816) (or (not MW_S1_V1) W_S1_V1) (not MW_S1_V2) (or (not MW_S1_V5) W_S1_V5) (or (not MW_S1_V4) W_S1_V4) (or (not MW_S2_V1) W_S2_V1) (or (not MW_S2_V3) W_S2_V3) (or (not MW_S2_V2) W_S2_V2) (or (not MW_S2_V5) W_S2_V5))))
 (or (not $x1490) (not $x1716) $x5237))))))))))))))))))))
 )
 )
 )
 )
 )
 )
 )
 )
 )
 )
 )
 )
 )
 )
 )
 )
 )
 )
 )
 )
 )
 )
 )
 )
 )
 )
 )
 )
 )
 )
 )
 )
 )
 )
 )
 )
 ))
 (let (($x397 (not (or (and W_S2_V2 R_E1_V2) (and W_S2_V5 R_E1_V5) R_E1_V4))))
 (let (($x1786 (= DISJ_W_S2_R_E1 $x397)))
 (let (($x4519 (and W_S2_V5 R_S2_V5)))
 (let (($x1170 (and W_S2_V2 R_S2_V2)))
 (let (($x1317 (and W_S2_V3 R_S2_V3)))
 (let (($x2355 (and W_S2_V1 R_S2_V1)))
 (let (($x6083 (= DISJ_W_S2_R_S2 (not (or $x2355 $x1317 $x1170 $x4519 R_S2_V4)))))
 (let (($x5203 (and W_S2_V5 R_S1_V5)))
 (let (($x5158 (and W_S2_V2 R_S1_V2)))
 (let (($x2943 (and W_S2_V3 R_S1_V3)))
 (let (($x6021 (and W_S2_V1 R_S1_V1)))
 (let (($x2380 (= DISJ_W_S2_R_S1 (not (or $x6021 $x2943 $x5158 $x5203 R_S1_V4)))))
 (let (($x4348 (and W_S1_V5 W_S2_V5)))
 (let (($x5431 (and W_S1_V1 W_S2_V1)))
 (let (($x1751 (= DISJ_W_S1_W_S2 (not (or $x5431 W_S2_V3 $x4348 W_S1_V4)))))
 (let (($x2861 (not R_E1_V3)))
 (let (($x1610 (and W_S1_V4 R_S2_V4)))
 (let (($x5813 (and W_S1_V5 R_S2_V5)))
 (let (($x428 (and W_S1_V1 R_S2_V1)))
 (let (($x4254 (= DISJ_W_S1_R_S2 (not (or $x428 R_S2_V3 $x5813 $x1610)))))
 (let (($x2903 (and W_S1_V4 R_S1_V4)))
 (let (($x4865 (and W_S1_V5 R_S1_V5)))
 (let (($x5864 (and W_S1_V1 R_S1_V1)))
 (let (($x3048 (= DISJ_W_S1_R_S1 (not (or $x5864 R_S1_V3 $x4865 $x2903)))))
 (let (($x2716 (not W_S1_V2)))
 (let (($x4779 (not R_E1_V1)))
 (and DISJ_W_S1_R_E1 $x4779 $x2716 W_S1_V3 W_S2_V4 $x3048 $x4254 $x2861 $x1751 $x2380 $x6083 $x1786 $x1785 $x1110 $x1618)))))))))))))))))))))))))))))))
(check-sat)
